7
0, 123, 248, 479, 732, 717, 528
123, 0, 370, 592, 829, 791, 540
248, 370, 0, 261, 550, 596, 568
479, 592, 261, 0, 297, 394, 547
732, 829, 550, 297, 0, 201, 568
717, 791, 596, 394, 201, 0, 411
528, 540, 568, 547, 568, 411, 0
